240 301 302 508 507 506 509 510 511 513 512 527 528 529 530 531 489 488 534 535 487 486 490 491 492 493 524 525 526 523 521 522 514 515 516 517 520 518 519 498 497 496 470 471 495 494 472 473 474 570 569 568 19 20 21 24 25 26 27 28 29 30 32 31 22 23 12 13 14 15 16 11 10 9 18 17 8 7 6 5 4 3 2 1 0 573 572 571 468 469 467 466 465 464 463 462 461 460 459 458 457 456 455 454 439 438 437 436 435 434 433 432 430 429 428 427 426 420 421 422 423 424 425 382 431 445 444 443 442 446 447 448 449 450 441 440 453 452 499 500 501 451 312 313 309 310 311 502 503 504 505 308 307 303 304 306 305 318 317 319 320 321 316 314 315 374 373 322 323 324 325 326 327 328 329 366 367 365 368 369 370 372 371 396 395 375 376 377 378 379 380 381 390 389 388 391 392 393 394 397 398 399 400 404 405 406 407 408 387 386 385 383 384 409 403 402 401 360 359 358 357 355 356 412 411 410 418 419 417 416 415 414 413 353 354 352 351 350 349 348 347 362 361 363 364 346 345 344 343 342 341 340 330 331 332 333 339 338 337 336 335 334 283 284 285 286 287 280 281 282 279 278 277 276 288 289 290 291 292 275 274 273 272 269 271 267 268 270 293 294 295 296 297 298 266 265 264 263 262 261 260 259 258 299 300 257 256 255 253 254 252 251 250 249 248 241 242 244 243 239 238 245 247 246 216 217 215 214 213 212 211 210 209 205 206 207 208 203 204 202 201 200 199 198 197 196 195 194 184 185 183 182 179 181 180 169 171 170 172 175 174 173 108 109 107 542 541 543 544 545 546 547 103 104 105 106 116 115 114 110 111 112 113 161 160 162 168 163 167 166 164 165 154 155 159 156 153 157 158 145 144 143 142 146 147 148 152 149 150 151 141 140 139 136 135 134 133 132 131 130 129 137 138 128 127 126 125 124 69 70 68 67 66 65 72 71 123 122 117 121 120 118 119 73 74 75 76 64 63 61 60 59 81 80 79 62 78 77 88 89 90 87 86 85 84 51 50 52 54 53 83 82 57 58 56 55 49 48 47 44 43 42 39 38 37 36 33 34 35 40 41 557 556 555 45 46 91 92 93 94 95 96 97 98 554 553 552 99 100 102 101 551 550 559 558 560 561 567 566 565 564 563 562 549 548 478 477 479 480 476 475 482 481 483 485 484 536 537 539 538 540 176 177 178 187 188 186 229 230 533 532 231 228 227 189 225 226 190 191 192 193 219 218 220 221 222 224 223 232 233 234 235 236 237